import ILED.dzn;

component LEDSwitchSystem {

  system {
    LED led;
    Switch switch;
    switch.iLed <=> led.iLed;
  }
}

component Switch {
  requires ILED iLed; // "requires" means calls ILED functions
} //, the Switch component requires 
//the ILED interface but the Switch
// component definition precedes the interface definition.

component LED {
   provides ILED iLed; // removed the component's behaviour block for now
   behaviour {
    on iLed.turnOn(): {}    // qualify funcs w/interface *instance* (port) name
    on iLed.turnOff(): {}
  }
}